
Gurobi 8.1.1 (mac64, Python) logging started Tue Sep 17 15:18:09 2019

Academic license - for non-commercial use only
Optimize a model with 6 rows, 5 columns and 11 nonzeros
Coefficient statistics:
  Matrix range     [5e-01, 6e+01]
  Objective range  [4e+01, 7e+01]
  Bounds range     [0e+00, 0e+00]
  RHS range        [2e+01, 5e+02]
Presolve removed 6 rows and 5 columns
Presolve time: 0.01s
Presolve: All rows and columns removed
Iteration    Objective       Primal Inf.    Dual Inf.      Time
       0    7.6000000e+02   0.000000e+00   0.000000e+00      0s

Solved in 0 iterations and 0.01 seconds
Optimal objective  7.600000000e+02
